c Maximum weighted clique instances generated from exactcolors.
c cutoff: 2386092.
c A clique of value > scalef (2386092) defines an improving stable sets for coloring.
p edge 90 0
n 1 2386091
n 2 2386091
n 3 2386091
n 4 2386091
n 5 2386091
n 6 2386091
n 7 2386091
n 8 2386091
n 9 2386091
n 10 2386091
n 11 2386091
n 12 2386091
n 13 2386091
n 14 2386091
n 15 2386091
n 16 2386091
n 17 2386091
n 18 2386091
n 19 2386091
n 20 2386091
n 21 2386091
n 22 2386091
n 23 2386091
n 24 2386091
n 25 2386091
n 26 2386091
n 27 2386091
n 28 2386091
n 29 2386091
n 30 2386091
n 31 2386091
n 32 2386091
n 33 2386091
n 34 2386091
n 35 2386091
n 36 2386091
n 37 2386091
n 38 2386091
n 39 2386091
n 40 2386091
n 41 2386091
n 42 2386091
n 43 2386091
n 44 2386091
n 45 2386091
n 46 2386091
n 47 2386091
n 48 2386091
n 49 2386091
n 50 2386091
n 51 2386091
n 52 2386091
n 53 2386091
n 54 2386091
n 55 2386091
n 56 2386091
n 57 2386091
n 58 2386091
n 59 2386091
n 60 2386091
n 61 2386091
n 62 2386091
n 63 2386091
n 64 2386091
n 65 2386091
n 66 2386091
n 67 2386091
n 68 2386091
n 69 2386091
n 70 2386091
n 71 2386091
n 72 2386091
n 73 2386091
n 74 2386091
n 75 2386091
n 76 2386091
n 77 2386091
n 78 2386091
n 79 2386091
n 80 2386091
n 81 2386091
n 82 2386091
n 83 2386091
n 84 2386091
n 85 2386091
n 86 2386091
n 87 2386091
n 88 2386091
n 89 2386091
n 90 2386091
